sat
(:max-memory         18.43
 :memory             18.33
 :nlsat-arith-var    3
 :nlsat-atoms        14
 :nlsat-bool-var     2
 :nlsat-clauses      10
 :nlsat-conflicts    2
 :nlsat-propagations 21
 :nlsat-stages       6
 :num-allocs         50660
 :rlimit-count       1641
 :time               0.00
 :total-time         0.01)
